1948.56 0
0 66 50 83 82 87 84 86 81 85 13 15 0 
0 53 49 32 46 37 42 34 38 56 78 51 0 
0 93 89 95 98 94 88 91 96 17 0 
0 60 29 44 58 67 30 28 41 39 40 33 31 36 47 48 43 0 
0 52 57 62 63 35 45 54 59 68 65 64 0 
0 55 80 76 79 77 69 71 72 70 0 
0 12 11 97 99 26 0 
0 23 90 92 18 20 0 
0 25 61 19 0 
0 27 21 7 100 6 8 9 2 1 10 5 3 4 16 0 
0 24 73 75 74 14 22 0 
